P4 W2
1.0
   3.0646109199999998    0.0000000000000000   -0.8691100500000000
  -0.0000000000000000    4.9837402300000004   -0.0000000000000000
  -0.0083636500000000   -0.0000000000000000    5.8081969400000002
P W
4 2
direct
   0.4306392700000000    0.6172870900000000    0.8612775499999999 P
   0.5693607300000000    0.1172870900000000    0.1387214500000000 P
   0.7004600900000000    0.8006707900000000    0.4009221700000000 P
   0.2995399100000000    0.3006697900000000    0.5990798300000000 P
   0.0935154200000000    0.4990411100000000    0.1870328300000000 W
   0.9064835800000000   -0.0009588900000000    0.8129671700000000 W
